77      4       
10      10      10      10      
0       0       0       0       0       7       2       3       4       5       6       8       13      
7       2       0       0       0       7       9       10      12      14      15      17      25      
5       4       0       0       1       3       7       11      22      
10      0       2       0       4       5       15      17      18      23      28      
4       4       0       5       2       4       11      18      20      23      
5       4       0       0       1       8       18      19      22      23      24      27      28      34      
6       0       0       1       1       6       16      19      23      24      31      33      
10      0       0       2       5       5       16      19      23      31      33      
5       2       0       0       2       5       18      19      22      24      34      
8       3       2       0       0       1       11      
7       0       1       3       0       6       19      24      27      28      33      34      
4       0       2       0       2       6       19      22      23      27      28      33      
3       2       0       1       0       6       19      24      27      28      33      34      
6       3       0       1       0       5       19      23      30      31      34      
2       0       1       0       1       5       21      22      26      27      34      
10      0       3       2       0       5       27      28      34      35      36      
9       1       0       0       1       2       19      30      
1       0       3       3       0       5       26      29      31      33      35      
8       0       0       2       1       2       21      26      
3       0       2       2       0       6       29      30      33      36      37      41      
7       0       2       2       0       5       29      35      36      37      44      
5       3       0       0       2       5       29      35      36      37      41      
9       4       0       2       0       2       26      29      
5       0       4       4       0       4       30      36      39      41      
6       0       5       0       5       4       29      34      37      44      
5       0       2       3       0       5       32      37      39      41      44      
7       0       3       0       4       2       29      37      
10      4       2       0       0       2       30      41      
7       0       0       3       3       3       32      39      40      
7       0       0       3       3       3       32      40      44      
6       2       0       2       0       7       40      41      42      43      44      47      48      
1       1       0       3       0       5       38      42      43      47      48      
2       1       0       0       2       5       38      42      43      47      48      
5       2       0       3       0       5       40      42      46      47      48      
2       0       3       2       0       4       40      42      43      47      
6       2       0       2       0       6       43      45      47      48      57      69      
10      3       0       1       0       3       40      42      46      
7       0       4       0       3       6       45      46      50      53      57      69      
5       0       2       2       0       4       43      49      57      69      
6       0       2       0       4       5       45      53      54      57      69      
10      2       0       0       4       5       45      50      51      54      57      
4       4       4       0       0       6       49      50      51      53      56      57      
10      1       0       0       1       4       46      50      53      55      
5       0       1       1       0       8       52      53      54      55      56      58      63      65      
7       0       5       1       0       4       49      52      56      63      
3       5       0       1       0       7       52      54      56      58      63      64      65      
3       2       0       3       0       3       49      56      63      
5       2       0       0       3       7       55      58      61      63      64      65      67      
1       0       0       3       2       6       55      58      61      64      65      67      
8       3       1       0       0       3       52      58      63      
9       0       7       0       3       8       59      60      61      62      63      64      67      76      
3       1       2       0       0       6       59      60      61      62      67      76      
3       3       3       0       0       6       59      60      61      62      64      76      
8       1       0       5       0       5       59      67      74      75      76      
4       2       0       4       0       4       59      60      62      74      
4       2       0       4       0       4       60      61      62      68      
7       0       1       5       0       5       62      70      72      74      76      
3       0       3       2       0       6       70      71      72      73      74      75      
10      3       0       0       2       4       66      71      72      73      
9       2       1       0       0       4       70      71      72      73      
9       2       0       0       2       4       70      71      72      74      
9       2       5       0       0       3       71      73      75      
9       4       0       0       3       2       68      72      
4       4       0       2       0       2       74      75      
10      0       1       2       0       2       70      76      
4       0       0       1       3       1       68      
9       0       4       0       3       1       68      
10      1       1       0       0       1       70      
5       0       1       0       4       1       71      
1       0       0       2       0       1       77      
8       0       0       6       2       1       77      
2       0       1       2       0       1       77      
4       0       0       5       5       1       77      
10      4       0       0       1       1       77      
6       1       4       0       0       1       77      
6       3       0       0       2       1       77      
0       0       0       0       0       0       
